Route #1: 32 31 46 24
Route #2: 95 20 35
Route #3: 41 73 53 33
Route #4: 93 22 15
Route #5: 5 75 30
Route #6: 79 85 11 50
Route #7: 23 19 100 21
Route #8: 61 8
Route #9: 17 91 97
Route #10: 80 34 52 81
Route #11: 64 27 83
Route #12: 51 96 3
Route #13: 71 94 88 40 44
Route #14: 62 56 58
Route #15: 77 59 99
Route #16: 12 14
Route #17: 67 98
Route #18: 18 63 28
Route #19: 89 60 57 39 4
Route #20: 66 25 82 72
Route #21: 84 10 87
Route #22: 92 90 65
Route #23: 48 54
Route #24: 9 76 42 26
Route #25: 68 55 78 47 38
Route #26: 86 16 69
Route #27: 6 74 1
Route #28: 49 37
Route #29: 70 13 7 2
Route #30: 36 29 43 45
Cost 42193
